(set-info :smt-lib-version 2.6)
(set-logic QF_S)
(set-info :source |
Generated by: Joel Day, Thorsten Ehlers, Mitja Kulczynski, Federico Mora, Florin Manea, Dirk Nowotka, Danny Poulsen, Zhengyang Lu
Application: Test WOORPJE
Target solver: WOORPJE
Publications: Day, J. D., Ehlers, T., Kulczynski, M., Manea, F., Nowotka, D., & Poulsen, D. B. (2019). On solving word equations using SAT. In RP 2019
Description: Consisting of a system of 100 small random word equations with at most 6 letters, 10 variables and length 60.
|)
(set-info :license "https://creativecommons.org/licenses/by/4.0/")
(set-info :category "random")
(set-info :status unknown)

(declare-fun B () String)
(declare-fun D () String)
(declare-fun E () String)
(assert (= (str.++  "adbceabccebacceedbbbcdcaeddaaabbcdceba" B "ebdeecabbbadabddabecaeddbad")  (str.++  "adbceabccebacceedbbbcdcaeddaaabbcdc" E "dabddabecaeddbad") ))
(assert (= (str.++  "cdbecdbabbceaababadeeddbbacddbbcbcbabdacdaebaadccebaceabbcaccdeeecbcbceceaaaeeecd" "")  (str.++  E "d" "") ))
(assert (= (str.++  "babcddebebaccbbddbddc" D "bcbdceeacdaddeecddeecbaebce" D "caaddccbbbddeeaaabcebcbbbba")  (str.++  "babcddebebaccbbddbddceaabcbdceeacdaddeecddeecbaebceeaacaaddccbbbddeeaaabcebcbbbba" "") ))
(assert (= (str.++  "ceeccbddcacdeacbcaeabacebdeceacdeaddabcbadccabc" D "adbbeecdaabecbaeeeddecbbbbacede")  (str.++  "ceeccbddcacdeacbcaeabacebdeceacdeaddabcbadccabc" D "adbbeecdaabecbaeeeddecbbbbacede") ))
(assert (= (str.++  "cabceebacdbbbccbccabedcddabeacaedcbcadbabecadedbbacbcccaebcbcccbcacddceceaabdeada" "")  (str.++  "cabceebacdbbbccbccabedcddabeacaedcbcadbabecadedbbacbcccaebcbcccbcacddcec" D "bdeada") ))
(assert (= (str.++  "ababbccababaeeedcbdccddbcacddeebbdecacdbbbbbeebbdcaacaaeaeddcbeeddedbbbbde" D "dbee")  (str.++  "ababbccababaeeedcbdccddbcacddeebbdecacdbbbbbeebbdcaacaaeaeddcbeeddedbbbbdeeaadbee" "") ))
(assert (= (str.++  "dcbbeccaaeeccedbedbdadccecaceeca" D "acaabbbcdeaeadceabddadbdcacbbcedaabecbacceddeb")  (str.++  "dcbbeccaaeeccedbedbdadccecaceecaeaaacaabbbcdeaeadceabddadbdcacbbcedaabecbacceddeb" "") ))
(check-sat)

(exit)
